130 5
10 10 10 10 10 

0 0 0 0 0 0 1 2 
0 0 0 0 0 0 2 3 4 
3 0 1 0 0 0 3 12 8 5 
2 0 4 0 0 0 3 11 10 8 
9 0 4 0 0 0 1 6 
9 0 3 0 0 0 1 7 
9 0 2 0 0 0 2 10 9 
9 0 3 0 0 0 1 9 
1 0 4 0 0 0 1 13 
6 0 1 0 0 0 1 13 
10 0 1 0 0 0 1 13 
10 0 2 0 0 0 1 13 
0 0 0 0 0 0 2 14 26 
0 0 0 0 0 0 1 15 
4 1 0 0 0 0 2 19 16 
1 1 0 0 0 0 2 18 17 
7 3 0 0 0 0 3 24 22 20 
10 2 0 0 0 0 3 24 21 20 
6 2 0 0 0 0 2 24 20 
4 3 0 0 0 0 1 23 
1 3 0 0 0 0 1 23 
10 3 0 0 0 0 1 23 
8 3 0 0 0 0 1 25 
1 4 0 0 0 0 1 25 
0 0 0 0 0 0 1 38 
0 0 0 0 0 0 1 27 
1 0 0 0 0 1 2 31 28 
7 0 0 0 0 2 2 30 29 
5 0 0 0 0 3 4 36 35 33 32 
7 0 0 0 0 3 4 36 35 33 32 
5 0 0 0 0 4 4 36 35 33 32 
9 0 0 0 0 1 1 34 
6 0 0 0 0 2 1 34 
7 0 0 0 0 2 1 37 
8 0 0 0 0 1 1 37 
5 0 0 0 0 6 1 37 
0 0 0 0 0 0 1 38 
0 0 0 0 0 0 3 39 61 83 
0 0 0 0 0 0 8 40 53 54 55 56 57 58 59 
9 0 1 1 0 0 3 52 51 41 
7 0 3 2 0 0 2 50 42 
1 0 4 3 0 0 1 43 
6 0 1 3 0 0 1 44 
1 0 1 3 0 0 1 45 
5 0 2 2 0 0 1 46 
6 0 3 3 0 0 1 47 
8 0 2 2 0 0 1 48 
1 0 3 5 0 0 1 49 
7 0 5 4 0 0 1 60 
2 0 2 2 0 0 1 60 
5 0 2 4 0 0 1 60 
8 0 4 1 0 0 1 60 
10 0 3 4 0 0 1 60 
5 0 3 2 0 0 1 60 
6 0 2 1 0 0 1 60 
2 0 3 1 0 0 1 60 
1 0 1 3 0 0 1 60 
10 0 2 2 0 0 1 60 
8 0 3 2 0 0 1 60 
0 0 0 0 0 0 1 119 
0 0 0 0 0 0 2 62 64 
7 0 1 0 0 1 2 66 63 
6 0 4 0 0 4 1 65 
6 0 1 0 0 2 1 65 
9 0 3 0 0 2 2 68 67 
2 0 3 0 0 2 3 74 69 68 
9 0 4 0 0 2 4 74 73 70 69 
1 0 2 0 0 1 3 73 72 70 
10 0 2 0 0 1 2 72 71 
2 0 1 0 0 4 3 81 80 75 
2 0 2 0 0 2 3 81 80 75 
4 0 2 0 0 3 2 80 75 
3 0 3 0 0 1 2 80 75 
9 0 5 0 0 1 2 80 75 
1 0 1 0 0 2 1 76 
4 0 2 0 0 4 2 79 77 
6 0 4 0 0 8 1 78 
6 0 4 0 0 2 1 82 
2 0 3 0 0 2 1 82 
1 0 1 0 0 3 1 82 
5 0 2 0 0 3 1 82 
0 0 0 0 0 0 1 119 
0 0 0 0 0 0 4 84 85 86 87 
7 1 0 0 0 0 2 91 88 
5 3 0 0 0 0 2 91 88 
6 2 0 0 0 0 2 91 89 
5 3 0 0 0 0 1 88 
8 2 0 0 0 0 1 89 
2 2 0 0 0 0 2 93 90 
7 2 0 0 0 0 1 92 
4 2 0 0 0 0 1 92 
10 3 0 0 0 0 1 94 
9 5 0 0 0 0 1 94 
0 0 0 0 0 0 2 95 107 
0 0 0 0 0 0 4 96 100 104 105 
8 0 0 1 0 0 2 103 97 
9 0 0 4 0 0 1 98 
4 0 0 4 0 0 2 102 99 
1 0 0 3 0 0 1 101 
3 0 0 3 0 0 1 103 
4 0 0 3 0 0 1 106 
5 0 0 4 0 0 1 106 
8 0 0 1 0 0 1 106 
1 0 0 1 0 0 1 106 
8 0 0 1 0 0 1 106 
0 0 0 0 0 0 1 119 
0 0 0 0 0 0 4 108 110 111 112 
9 0 0 0 0 1 1 109 
2 0 0 0 0 3 3 115 114 113 
10 0 0 0 0 4 3 115 114 113 
1 0 0 0 0 5 1 114 
6 0 0 0 0 2 1 113 
10 0 0 0 0 2 1 116 
5 0 0 0 0 1 1 116 
7 0 0 0 0 5 1 116 
7 0 0 0 0 1 1 117 
6 0 0 0 0 1 1 118 
0 0 0 0 0 0 1 119 
0 0 0 0 0 0 2 120 122 
5 1 0 0 0 0 3 129 128 121 
10 3 0 0 0 0 3 127 126 123 
6 1 0 0 0 0 2 126 124 
6 3 0 0 0 0 1 124 
7 3 0 0 0 0 1 125 
3 3 0 0 0 0 1 130 
2 1 0 0 0 0 1 130 
2 4 0 0 0 0 1 130 
2 3 0 0 0 0 1 130 
6 3 0 0 0 0 1 130 
0 0 0 0 0 0 0 
